NAME : portcgen-19-20
COMMENT : portcgen N=19, seed=20
TYPE : TSP
DIMENSION : 19
EDGE_WEIGHT_TYPE : EUC_2D
NODE_COORD_SECTION
1 333252 -94712
2 -131426 -25110
3 -630369 259060
4 190246 42064
5 115495 452059
6 -106711 -277350
7 4613 10829
8 -65430 -884162
9 115068 234949
10 144445 -129871
11 -145196 30940
12 94213 -164983
13 -242375 -136299
14 -167984 93795
15 474775 -440969
16 130709 -192138
17 201719 191338
18 79513 162770
19 -106457 -251351
